start_domain = 15;
target_domain = 11;
vnflist_size = 5;
vnflist = [10,1,5,1,10];
vnf_arcs = [|1,2|1,3|3,4|3,5|];
proximity_to_source = [0,1,0,0,0];
proximity_to_destination = [0,0,0,0,0];
n_domain_constraints = 2;
domain_constraints = [|2,1,1,1|2,3,1,1|];
